formal-intro-course/exercises/part1/wolf_goat_cabbage/wolf_goat_cabbage/model/design_smt2.smt2
; SMT-LIBv2 description generated by Yosys 0.9+932 (git sha1 4072a966, clang 6.0.0-1ubuntu2 -fPIC -Os)
; yosys-smt2-module wolf_goat_cabbage
(declare-sort |wolf_goat_cabbage_s| 0)
(declare-fun |wolf_goat_cabbage_is| (|wolf_goat_cabbage_s|) Bool)
; yosys-smt2-input w 1
; yosys-smt2-wire w 1
(declare-fun |wolf_goat_cabbage#0| (|wolf_goat_cabbage_s|) Bool) ; \w
(define-fun |wolf_goat_cabbage_n w| ((state |wolf_goat_cabbage_s|)) Bool (|wolf_goat_cabbage#0| state))
; yosys-smt2-input g 1
; yosys-smt2-wire g 1
(declare-fun |wolf_goat_cabbage#1| (|wolf_goat_cabbage_s|) Bool) ; \g
(define-fun |wolf_goat_cabbage_n g| ((state |wolf_goat_cabbage_s|)) Bool (|wolf_goat_cabbage#1| state))
; yosys-smt2-input clk 1
; yosys-smt2-wire clk 1
; yosys-smt2-clock clk posedge
(declare-fun |wolf_goat_cabbage#2| (|wolf_goat_cabbage_s|) Bool) ; \clk
(define-fun |wolf_goat_cabbage_n clk| ((state |wolf_goat_cabbage_s|)) Bool (|wolf_goat_cabbage#2| state))
; yosys-smt2-input c 1
; yosys-smt2-wire c 1
(declare-fun |wolf_goat_cabbage#3| (|wolf_goat_cabbage_s|) Bool) ; \c
(define-fun |wolf_goat_cabbage_n c| ((state |wolf_goat_cabbage_s|)) Bool (|wolf_goat_cabbage#3| state))
; yosys-smt2-register bank_w 1
; yosys-smt2-wire bank_w 1
(declare-fun |wolf_goat_cabbage#4| (|wolf_goat_cabbage_s|) (_ BitVec 1)) ; \bank_w
(define-fun |wolf_goat_cabbage_n bank_w| ((state |wolf_goat_cabbage_s|)) Bool (= ((_ extract 0 0) (|wolf_goat_cabbage#4| state)) #b1))
; yosys-smt2-register bank_m 1
; yosys-smt2-wire bank_m 1
(declare-fun |wolf_goat_cabbage#5| (|wolf_goat_cabbage_s|) (_ BitVec 1)) ; \bank_m
(define-fun |wolf_goat_cabbage_n bank_m| ((state |wolf_goat_cabbage_s|)) Bool (= ((_ extract 0 0) (|wolf_goat_cabbage#5| state)) #b1))
; yosys-smt2-register bank_g 1
; yosys-smt2-wire bank_g 1
(declare-fun |wolf_goat_cabbage#6| (|wolf_goat_cabbage_s|) (_ BitVec 1)) ; \bank_g
(define-fun |wolf_goat_cabbage_n bank_g| ((state |wolf_goat_cabbage_s|)) Bool (= ((_ extract 0 0) (|wolf_goat_cabbage#6| state)) #b1))
; yosys-smt2-register bank_c 1
; yosys-smt2-wire bank_c 1
(declare-fun |wolf_goat_cabbage#7| (|wolf_goat_cabbage_s|) (_ BitVec 1)) ; \bank_c
(define-fun |wolf_goat_cabbage_n bank_c| ((state |wolf_goat_cabbage_s|)) Bool (= ((_ extract 0 0) (|wolf_goat_cabbage#7| state)) #b1))
; yosys-smt2-register $formal$wolf_goat_cabbage.sv:21$2_CHECK 1
(declare-fun |wolf_goat_cabbage#8| (|wolf_goat_cabbage_s|) (_ BitVec 1)) ; $formal$wolf_goat_cabbage.sv:21$2_CHECK
(define-fun |wolf_goat_cabbage_n $formal$wolf_goat_cabbage.sv:21$2_CHECK| ((state |wolf_goat_cabbage_s|)) Bool (= ((_ extract 0 0) (|wolf_goat_cabbage#8| state)) #b1))
; yosys-smt2-register $formal$wolf_goat_cabbage.sv:17$1_EN 1
(declare-fun |wolf_goat_cabbage#9| (|wolf_goat_cabbage_s|) (_ BitVec 1)) ; $formal$wolf_goat_cabbage.sv:17$1_EN
(define-fun |wolf_goat_cabbage_n $formal$wolf_goat_cabbage.sv:17$1_EN| ((state |wolf_goat_cabbage_s|)) Bool (= ((_ extract 0 0) (|wolf_goat_cabbage#9| state)) #b1))
; yosys-smt2-cover 0 wolf_goat_cabbage.sv:21
(define-fun |wolf_goat_cabbage_c 0| ((state |wolf_goat_cabbage_s|)) Bool (and (= ((_ extract 0 0) (|wolf_goat_cabbage#8| state)) #b1) (= ((_ extract 0 0) (|wolf_goat_cabbage#9| state)) #b1))) ; $cover$wolf_goat_cabbage.sv:21$34
; yosys-smt2-anyseq wolf_goat_cabbage#10 1 $auto$setundef.cc:524:execute$79
(declare-fun |wolf_goat_cabbage#10| (|wolf_goat_cabbage_s|) (_ BitVec 1)) ; $auto$rtlil.cc:2318:Anyseq$80
(define-fun |wolf_goat_cabbage#11| ((state |wolf_goat_cabbage_s|)) Bool (distinct (|wolf_goat_cabbage#6| state) (|wolf_goat_cabbage#7| state))) ; $ne$wolf_goat_cabbage.sv:30$22_Y
(define-fun |wolf_goat_cabbage#12| ((state |wolf_goat_cabbage_s|)) Bool (distinct (|wolf_goat_cabbage#6| state) (|wolf_goat_cabbage#5| state))) ; $ne$wolf_goat_cabbage.sv:29$21_Y
(define-fun |wolf_goat_cabbage#13| ((state |wolf_goat_cabbage_s|)) (_ BitVec 1) (ite (|wolf_goat_cabbage#12| state) (ite (|wolf_goat_cabbage#11| state) #b1 #b0) (|wolf_goat_cabbage#10| state))) ; $0$formal$wolf_goat_cabbage.sv:30$4_CHECK[0:0]$12
(define-fun |wolf_goat_cabbage#14| ((state |wolf_goat_cabbage_s|)) (_ BitVec 1) (ite (|wolf_goat_cabbage#12| state) #b1 #b0)) ; $0$formal$wolf_goat_cabbage.sv:30$4_EN[0:0]$13
; yosys-smt2-assume 0 wolf_goat_cabbage.sv:30
(define-fun |wolf_goat_cabbage_u 0| ((state |wolf_goat_cabbage_s|)) Bool (or (= ((_ extract 0 0) (|wolf_goat_cabbage#13| state)) #b1) (not (= ((_ extract 0 0) (|wolf_goat_cabbage#14| state)) #b1)))) ; $assume$wolf_goat_cabbage.sv:30$36
; yosys-smt2-anyseq wolf_goat_cabbage#15 1 $auto$setundef.cc:524:execute$77
(declare-fun |wolf_goat_cabbage#15| (|wolf_goat_cabbage_s|) (_ BitVec 1)) ; $auto$rtlil.cc:2318:Anyseq$78
(define-fun |wolf_goat_cabbage#16| ((state |wolf_goat_cabbage_s|)) Bool (distinct (|wolf_goat_cabbage#4| state) (|wolf_goat_cabbage#6| state))) ; $ne$wolf_goat_cabbage.sv:25$20_Y
(define-fun |wolf_goat_cabbage#17| ((state |wolf_goat_cabbage_s|)) Bool (distinct (|wolf_goat_cabbage#4| state) (|wolf_goat_cabbage#5| state))) ; $ne$wolf_goat_cabbage.sv:24$19_Y
(define-fun |wolf_goat_cabbage#18| ((state |wolf_goat_cabbage_s|)) (_ BitVec 1) (ite (|wolf_goat_cabbage#17| state) (ite (|wolf_goat_cabbage#16| state) #b1 #b0) (|wolf_goat_cabbage#15| state))) ; $0$formal$wolf_goat_cabbage.sv:25$3_CHECK[0:0]$10
(define-fun |wolf_goat_cabbage#19| ((state |wolf_goat_cabbage_s|)) (_ BitVec 1) (ite (|wolf_goat_cabbage#17| state) #b1 #b0)) ; $0$formal$wolf_goat_cabbage.sv:25$3_EN[0:0]$11
; yosys-smt2-assume 1 wolf_goat_cabbage.sv:25
(define-fun |wolf_goat_cabbage_u 1| ((state |wolf_goat_cabbage_s|)) Bool (or (= ((_ extract 0 0) (|wolf_goat_cabbage#18| state)) #b1) (not (= ((_ extract 0 0) (|wolf_goat_cabbage#19| state)) #b1)))) ; $assume$wolf_goat_cabbage.sv:25$35
(define-fun |wolf_goat_cabbage#20| ((state |wolf_goat_cabbage_s|)) (_ BitVec 2) (bvadd (concat #b0 (ite (|wolf_goat_cabbage#0| state) #b1 #b0)) (concat #b0 (ite (|wolf_goat_cabbage#1| state) #b1 #b0)))) ; $add$wolf_goat_cabbage.sv:17$14_Y
(define-fun |wolf_goat_cabbage#21| ((state |wolf_goat_cabbage_s|)) (_ BitVec 3) (bvadd (concat #b0 (|wolf_goat_cabbage#20| state)) (concat #b00 (ite (|wolf_goat_cabbage#3| state) #b1 #b0)))) ; $add$wolf_goat_cabbage.sv:17$15_Y
(define-fun |wolf_goat_cabbage#22| ((state |wolf_goat_cabbage_s|)) Bool (bvule (|wolf_goat_cabbage#21| state) #b001)) ; $0$formal$wolf_goat_cabbage.sv:17$1_CHECK[0:0]$6
; yosys-smt2-assume 2 wolf_goat_cabbage.sv:17
(define-fun |wolf_goat_cabbage_u 2| ((state |wolf_goat_cabbage_s|)) Bool (or (|wolf_goat_cabbage#22| state) (not true))) ; $assume$wolf_goat_cabbage.sv:17$33
(define-fun |wolf_goat_cabbage#23| ((state |wolf_goat_cabbage_s|)) Bool (and (or  (= ((_ extract 0 0) (|wolf_goat_cabbage#4| state)) #b1) false) (or  (= ((_ extract 0 0) (|wolf_goat_cabbage#6| state)) #b1) false))) ; $logic_and$wolf_goat_cabbage.sv:21$17_Y
(define-fun |wolf_goat_cabbage#24| ((state |wolf_goat_cabbage_s|)) Bool (and (or  (|wolf_goat_cabbage#23| state) false) (or  (= ((_ extract 0 0) (|wolf_goat_cabbage#7| state)) #b1) false))) ; $0$formal$wolf_goat_cabbage.sv:21$2_CHECK[0:0]$8
(define-fun |wolf_goat_cabbage#25| ((state |wolf_goat_cabbage_s|)) Bool (not (or  (= ((_ extract 0 0) (|wolf_goat_cabbage#5| state)) #b1) false))) ; $0\bank_m[0:0]
(define-fun |wolf_goat_cabbage#26| ((state |wolf_goat_cabbage_s|)) Bool (= (|wolf_goat_cabbage#7| state) (|wolf_goat_cabbage#5| state))) ; $eq$wolf_goat_cabbage.sv:36$29_Y
(define-fun |wolf_goat_cabbage#27| ((state |wolf_goat_cabbage_s|)) Bool (and (or  (|wolf_goat_cabbage#3| state) false) (or  (|wolf_goat_cabbage#26| state) false))) ; $logic_and$wolf_goat_cabbage.sv:36$30_Y
(define-fun |wolf_goat_cabbage#28| ((state |wolf_goat_cabbage_s|)) (_ BitVec 1) (ite (|wolf_goat_cabbage#27| state) (ite (|wolf_goat_cabbage#25| state) #b1 #b0) (|wolf_goat_cabbage#7| state))) ; $0\bank_c[0:0]
(define-fun |wolf_goat_cabbage#29| ((state |wolf_goat_cabbage_s|)) Bool (= (|wolf_goat_cabbage#6| state) (|wolf_goat_cabbage#5| state))) ; $eq$wolf_goat_cabbage.sv:35$26_Y
(define-fun |wolf_goat_cabbage#30| ((state |wolf_goat_cabbage_s|)) Bool (and (or  (|wolf_goat_cabbage#1| state) false) (or  (|wolf_goat_cabbage#29| state) false))) ; $logic_and$wolf_goat_cabbage.sv:35$27_Y
(define-fun |wolf_goat_cabbage#31| ((state |wolf_goat_cabbage_s|)) (_ BitVec 1) (ite (|wolf_goat_cabbage#30| state) (ite (|wolf_goat_cabbage#25| state) #b1 #b0) (|wolf_goat_cabbage#6| state))) ; $0\bank_g[0:0]
(define-fun |wolf_goat_cabbage#32| ((state |wolf_goat_cabbage_s|)) Bool (= (|wolf_goat_cabbage#4| state) (|wolf_goat_cabbage#5| state))) ; $eq$wolf_goat_cabbage.sv:34$23_Y
(define-fun |wolf_goat_cabbage#33| ((state |wolf_goat_cabbage_s|)) Bool (and (or  (|wolf_goat_cabbage#0| state) false) (or  (|wolf_goat_cabbage#32| state) false))) ; $logic_and$wolf_goat_cabbage.sv:34$24_Y
(define-fun |wolf_goat_cabbage#34| ((state |wolf_goat_cabbage_s|)) (_ BitVec 1) (ite (|wolf_goat_cabbage#33| state) (ite (|wolf_goat_cabbage#25| state) #b1 #b0) (|wolf_goat_cabbage#4| state))) ; $0\bank_w[0:0]
(define-fun |wolf_goat_cabbage_a| ((state |wolf_goat_cabbage_s|)) Bool true)
(define-fun |wolf_goat_cabbage_u| ((state |wolf_goat_cabbage_s|)) Bool (and
  (|wolf_goat_cabbage_u 0| state)
  (|wolf_goat_cabbage_u 1| state)
  (|wolf_goat_cabbage_u 2| state)
))
(define-fun |wolf_goat_cabbage_i| ((state |wolf_goat_cabbage_s|)) Bool (and
  (= (= ((_ extract 0 0) (|wolf_goat_cabbage#4| state)) #b1) false) ; bank_w
  (= (= ((_ extract 0 0) (|wolf_goat_cabbage#5| state)) #b1) false) ; bank_m
  (= (= ((_ extract 0 0) (|wolf_goat_cabbage#6| state)) #b1) false) ; bank_g
  (= (= ((_ extract 0 0) (|wolf_goat_cabbage#7| state)) #b1) false) ; bank_c
  (= (= ((_ extract 0 0) (|wolf_goat_cabbage#9| state)) #b1) false) ; $formal$wolf_goat_cabbage.sv:17$1_EN
))
(define-fun |wolf_goat_cabbage_h| ((state |wolf_goat_cabbage_s|)) Bool true)
(define-fun |wolf_goat_cabbage_t| ((state |wolf_goat_cabbage_s|) (next_state |wolf_goat_cabbage_s|)) Bool (and
  (= #b1 (|wolf_goat_cabbage#9| next_state)) ; $procdff$68 $formal$wolf_goat_cabbage.sv:17$1_EN
  (= (ite (|wolf_goat_cabbage#24| state) #b1 #b0) (|wolf_goat_cabbage#8| next_state)) ; $procdff$69 $formal$wolf_goat_cabbage.sv:21$2_CHECK
  (= (|wolf_goat_cabbage#28| state) (|wolf_goat_cabbage#7| next_state)) ; $procdff$65 \bank_c
  (= (|wolf_goat_cabbage#31| state) (|wolf_goat_cabbage#6| next_state)) ; $procdff$64 \bank_g
  (= (ite (|wolf_goat_cabbage#25| state) #b1 #b0) (|wolf_goat_cabbage#5| next_state)) ; $procdff$66 \bank_m
  (= (|wolf_goat_cabbage#34| state) (|wolf_goat_cabbage#4| next_state)) ; $procdff$63 \bank_w
)) ; end of module wolf_goat_cabbage
; yosys-smt2-topmod wolf_goat_cabbage
; end of yosys output
